
Log started (V22.2.0.0) Tue Jun  9 08:33:07 2026

New value for time limit in seconds: 120
New value for default parallel thread count: 4
New value for mixed integer optimality gap tolerance: 0.001
New value for level of mixed integer node display: 2

Problem 'results/InstanceA2_bigm_finsteps123.lp' read.
Read time = 0.01 sec. (0.78 ticks)
Version identifier: 22.2.0.0 | 2026-05-04 | 5dff98e58
CPXPARAM_Threads                                 4
CPXPARAM_TimeLimit                               120
CPXPARAM_MIP_Tolerances_MIPGap                   0.001
Tried aggregator 2 times.
MIP Presolve eliminated 48 rows and 48 columns.
MIP Presolve modified 82901 coefficients.
Aggregator did 475 substitutions.
Reduced MIP has 7972 rows, 4262 columns, and 23414 nonzeros.
Reduced MIP has 3787 binaries, 0 generals, 0 SOSs, and 0 indicators.
Presolve time = 0.02 sec. (38.24 ticks)
Found incumbent of value 75.000000 after 0.05 sec. (75.82 ticks)
Probing time = 0.00 sec. (4.97 ticks)
Tried aggregator 1 time.
Detecting symmetries...
MIP Presolve modified 19 coefficients.
Reduced MIP has 7972 rows, 4262 columns, and 23414 nonzeros.
Reduced MIP has 3787 binaries, 0 generals, 0 SOSs, and 0 indicators.
Presolve time = 0.01 sec. (12.79 ticks)
Probing time = 0.00 sec. (4.58 ticks)
Clique table members: 1784.
MIP emphasis: balance optimality and feasibility.
MIP search method: dynamic search.
Parallel mode: deterministic, using up to 4 threads.
Root relaxation solution time = 0.04 sec. (275.37 ticks)

        Nodes                                         Cuts/
   Node  Left     Objective  IInf  Best Integer    Best Bound    ItCnt     Gap

*     0+    0                           75.0000       23.0000            69.33%
*     0+    0                           73.0000       23.0000            68.49%
      0     0       23.0000    13       73.0000       23.0000     3240   68.49%
*     0+    0                           28.0000       23.0000            17.86%
      0     0       23.0075    12       28.0000      Cuts: 63     3343   17.83%
*     0+    0                           26.0000       23.0075            11.51%
      0     0       25.0000    14       26.0000     Cuts: 264     3376    3.85%
      0     0       25.0000     9       26.0000      Cuts: 75     3390    3.85%
*     0+    0                           25.0000       25.0000             0.00%
      0     0  -1.00000e+75     0       25.0000       25.0000     3390    0.00%
      0     0        cutoff             25.0000       25.0000     3390    0.00%
Elapsed time = 0.20 sec. (520.20 ticks, tree = 0.01 MB, solutions = 5)

Clique cuts applied:  14
Implied bound cuts applied:  37
Mixed integer rounding cuts applied:  31

Root node processing (before b&c):
  Real time             =    0.20 sec. (520.61 ticks)
Parallel b&c, 4 threads:
  Real time             =    0.00 sec. (0.00 ticks)
  Sync time (average)   =    0.00 sec.
  Wait time (average)   =    0.00 sec.
                          ------------
Total (root+branch&cut) =    0.20 sec. (520.61 ticks)

Solution pool: 5 solutions saved.

MIP - Integer optimal solution:  Objective =  2.5000000000e+01
Solution time =    0.20 sec.  Iterations = 3390  Nodes = 0
Deterministic time = 520.62 ticks  (2622.71 ticks/sec)


Incumbent solution written to file 'results/InstanceA2_bigm_finsteps123.sol'.
